
<<< setup

Version identifier: 22.1.1.0 | 2022-11-27 | 9160aff4d
Tried aggregator 1 time.
MIP Presolve eliminated 6 rows and 82 columns.
Reduced MIP has 26 rows, 158 columns, and 446 nonzeros.
Reduced MIP has 0 binaries, 158 generals, 0 SOSs, and 0 indicators.
Presolve time = 0.00 sec. (0.33 ticks)
Found incumbent of value 446.000000 after 0.00 sec. (1.67 ticks)
Tried aggregator 1 time.
Detecting symmetries...
Reduced MIP has 26 rows, 158 columns, and 446 nonzeros.
Reduced MIP has 0 binaries, 158 generals, 0 SOSs, and 0 indicators.
Presolve time = 0.00 sec. (0.21 ticks)
MIP emphasis: balance optimality and feasibility.
MIP search method: dynamic search.
Parallel mode: deterministic, using up to 16 threads.
Root relaxation solution time = 0.00 sec. (0.12 ticks)

        Nodes                                         Cuts/
   Node  Left     Objective  IInf  Best Integer    Best Bound    ItCnt     Gap

*     0+    0                          446.0000        0.0000           100.00%
*     0+    0                          260.0000        0.0000           100.00%
*     0     0      integral     0      248.0000      248.0000       22    0.00%
Elapsed time = 0.00 sec. (2.13 ticks, tree = 0.00 MB, solutions = 3)

Root node processing (before b&c):
  Real time             =    0.00 sec. (2.14 ticks)
Parallel b&c, 16 threads:
  Real time             =    0.00 sec. (0.00 ticks)
  Sync time (average)   =    0.00 sec.
  Wait time (average)   =    0.00 sec.
                          ------------
Total (root+branch&cut) =    0.00 sec. (2.14 ticks)
main returns 0

<<< main


<<< done

